/* Objective function */
max: +t;

/* Constraints */
+0.832623839378 pi1 +0.912618160248 pi2 +0.925137639046 pi3 +0.828793764114 pi4 +0.861034035683 pi5 -t >= 0;
+0.925065159798 pi1 +pi2 +0.95017015934 pi3 +pi4 +pi5 -t >= 0;
+0.906311988831 pi1 +pi2 +0.950133562088 pi3 +pi4 +pi5 -t >= 0;
+0.849891543388 pi1 +pi2 +pi3 +pi4 +pi5 -t >= 0;
+0.91656088829 pi1 +pi2 +pi3 +pi4 +pi5 -t >= 0;
+pi1 +pi2 +pi3 +pi4 +pi5 = 1;
